p cnf 18 18
-5 17 10 -6 2 -16 0
-18 -16 6 0
-13 18 1 12 0
6 8 -1 -3 0
17 -18 -4 -9 13 -8 -10 -14 -2 0
-7 -11 -15 -17 13 2 -12 18 0
-12 -5 15 -2 0
7 5 -11 -13 -3 -10 6 -2 0
-6 -14 17 -3 18 0
4 -11 1 16 0
3 -14 18 -9 0
-2 -3 -10 0
-6 10 -11 9 13 8 -14 1 12 0
-6 -17 4 0
-7 4 5 15 -17 13 0
-10 7 13 2 16 0
1 0 -1 0
